
Gurobi 11.0.0 (win64, Python) logging started Sat May  4 20:41:11 2024

Set parameter Username
Set parameter LogFile to value "gurobi.log"
Academic license - for non-commercial use only - expires 2025-01-21
